words_hard_train/4046.qaiger
aag 136 24 0 1 112
2
4
8
12
18
24
28
32
38
42
44
52
54
62
64
72
74
82
84
92
94
102
104
250
273
6 3 4
10 8 4
14 11 13
16 15 4
20 17 19
22 21 4
26 23 25
30 26 29
34 30 33
36 6 34
40 37 39
46 42 45
48 43 44
50 47 49
56 52 55
58 53 54
60 57 59
66 62 65
68 63 64
70 67 69
76 72 75
78 73 74
80 77 79
86 82 85
88 83 84
90 87 89
96 92 95
98 93 94
100 97 99
106 102 105
108 103 104
110 107 109
112 100 110
114 90 112
116 80 114
118 70 116
120 60 118
122 50 120
124 41 123
126 106 8
128 127 109
130 101 111
132 131 113
134 10 12
136 135 15
138 137 95
140 133 138
142 129 141
144 132 139
146 143 145
148 16 18
150 149 21
152 151 85
154 91 113
156 155 115
158 152 157
160 147 159
162 153 156
164 161 163
166 22 24
168 167 27
170 169 75
172 81 115
174 173 117
176 170 175
178 165 177
180 171 174
182 179 181
184 27 4
186 185 28
188 187 65
190 184 29
192 188 191
194 71 117
196 195 119
198 192 197
200 183 199
202 193 196
204 201 203
206 31 4
208 207 32
210 209 55
212 206 33
214 210 213
216 61 119
218 217 121
220 214 219
222 205 221
224 215 218
226 223 225
228 35 4
230 229 2
232 231 45
234 6 35
236 232 235
238 51 121
240 239 123
242 236 241
244 227 243
246 237 240
248 245 247
252 250 39
254 251 38
256 253 255
258 249 257
260 124 259
262 40 122
264 258 262
266 261 265
268 248 256
270 268 263
272 266 271
i0 1 x2[6]
i1 1 x2[7]
i2 1 x2[0]
i3 1 x2[1]
i4 1 x2[2]
i5 1 x2[3]
i6 1 x2[4]
i7 1 x2[5]
i8 2 y1[7]
i9 1 x1[6]
i10 2 y1[6]
i11 1 x1[5]
i12 2 y1[5]
i13 1 x1[4]
i14 2 y1[4]
i15 1 x1[3]
i16 2 y1[3]
i17 1 x1[2]
i18 2 y1[2]
i19 1 x1[1]
i20 2 y1[1]
i21 1 x1[0]
i22 2 y1[0]
i23 1 x1[7]
o0 bv[0]
c
simplified
  <
    or
      abs
        1 x2
      2 y1
    xor
      2 y1
      1 x1
