words_hard_train/4046.qaiger.qdimacs
p cnf 136 337
a 1 2 4 36 6 9 41 12 14 46 16 51 21 26 125 31 0
e 3 5 7 8 10 11 13 15 17 18 19 20 22 23 24 25 27 28 29 30 32 33 34 35 37 38 39 40 42 43 44 45 47 48 49 50 52 53 54 55 56 57 58 59 60 61 62 63 64 65 66 67 68 69 70 71 72 73 74 75 76 77 78 79 80 81 82 83 84 85 86 87 88 89 90 91 92 93 94 95 96 97 98 99 100 101 102 103 104 105 106 107 108 109 110 111 112 113 114 115 116 117 118 119 120 121 122 123 124 126 127 128 129 130 131 132 133 134 135 136 0
1 -2 3 0
-1 -3 0
2 -3 0
-4 -2 5 0
4 -5 0
2 -5 0
5 6 7 0
-5 -7 0
-6 -7 0
7 -2 8 0
-7 -8 0
2 -8 0
8 9 10 0
-8 -10 0
-9 -10 0
10 -2 11 0
-10 -11 0
2 -11 0
11 12 13 0
-11 -13 0
-12 -13 0
-13 14 15 0
13 -15 0
-14 -15 0
-15 16 17 0
15 -17 0
-16 -17 0
-3 -17 18 0
3 -18 0
17 -18 0
18 19 20 0
-18 -20 0
-19 -20 0
-21 22 23 0
21 -23 0
-22 -23 0
21 -22 24 0
-21 -24 0
22 -24 0
23 24 25 0
-23 -25 0
-24 -25 0
-26 27 28 0
26 -28 0
-27 -28 0
26 -27 29 0
-26 -29 0
27 -29 0
28 29 30 0
-28 -30 0
-29 -30 0
-31 32 33 0
31 -33 0
-32 -33 0
31 -32 34 0
-31 -34 0
32 -34 0
33 34 35 0
-33 -35 0
-34 -35 0
-36 37 38 0
36 -38 0
-37 -38 0
36 -37 39 0
-36 -39 0
37 -39 0
38 39 40 0
-38 -40 0
-39 -40 0
-41 42 43 0
41 -43 0
-42 -43 0
41 -42 44 0
-41 -44 0
42 -44 0
43 44 45 0
-43 -45 0
-44 -45 0
-46 47 48 0
46 -48 0
-47 -48 0
46 -47 49 0
-46 -49 0
47 -49 0
48 49 50 0
-48 -50 0
-49 -50 0
-51 52 53 0
51 -53 0
-52 -53 0
51 -52 54 0
-51 -54 0
52 -54 0
53 54 55 0
-53 -55 0
-54 -55 0
-50 -55 56 0
50 -56 0
55 -56 0
-45 -56 57 0
45 -57 0
56 -57 0
-40 -57 58 0
40 -58 0
57 -58 0
-35 -58 59 0
35 -59 0
58 -59 0
-30 -59 60 0
30 -60 0
59 -60 0
-25 -60 61 0
25 -61 0
60 -61 0
20 61 62 0
-20 -62 0
-61 -62 0
-53 -4 63 0
53 -63 0
4 -63 0
63 54 64 0
-63 -64 0
-54 -64 0
50 55 65 0
-50 -65 0
-55 -65 0
65 56 66 0
-65 -66 0
-56 -66 0
-5 -6 67 0
5 -67 0
6 -67 0
67 7 68 0
-67 -68 0
-7 -68 0
68 47 69 0
-68 -69 0
-47 -69 0
66 -69 70 0
-66 -70 0
69 -70 0
64 70 71 0
-64 -71 0
-70 -71 0
-66 69 72 0
66 -72 0
-69 -72 0
71 72 73 0
-71 -73 0
-72 -73 0
-8 -9 74 0
8 -74 0
9 -74 0
74 10 75 0
-74 -75 0
-10 -75 0
75 42 76 0
-75 -76 0
-42 -76 0
45 56 77 0
-45 -77 0
-56 -77 0
77 57 78 0
-77 -78 0
-57 -78 0
-76 78 79 0
76 -79 0
-78 -79 0
73 79 80 0
-73 -80 0
-79 -80 0
76 -78 81 0
-76 -81 0
78 -81 0
80 81 82 0
-80 -82 0
-81 -82 0
-11 -12 83 0
11 -83 0
12 -83 0
83 13 84 0
-83 -84 0
-13 -84 0
84 37 85 0
-84 -85 0
-37 -85 0
40 57 86 0
-40 -86 0
-57 -86 0
86 58 87 0
-86 -87 0
-58 -87 0
-85 87 88 0
85 -88 0
-87 -88 0
82 88 89 0
-82 -89 0
-88 -89 0
85 -87 90 0
-85 -90 0
87 -90 0
89 90 91 0
-89 -91 0
-90 -91 0
13 -2 92 0
-13 -92 0
2 -92 0
92 -14 93 0
-92 -93 0
14 -93 0
93 32 94 0
-93 -94 0
-32 -94 0
-92 14 95 0
92 -95 0
-14 -95 0
-94 95 96 0
94 -96 0
-95 -96 0
35 58 97 0
-35 -97 0
-58 -97 0
97 59 98 0
-97 -98 0
-59 -98 0
-96 98 99 0
96 -99 0
-98 -99 0
91 99 100 0
-91 -100 0
-99 -100 0
96 -98 101 0
-96 -101 0
98 -101 0
100 101 102 0
-100 -102 0
-101 -102 0
15 -2 103 0
-15 -103 0
2 -103 0
103 -16 104 0
-103 -104 0
16 -104 0
104 27 105 0
-104 -105 0
-27 -105 0
-103 16 106 0
103 -106 0
-16 -106 0
-105 106 107 0
105 -107 0
-106 -107 0
30 59 108 0
-30 -108 0
-59 -108 0
108 60 109 0
-108 -109 0
-60 -109 0
-107 109 110 0
107 -110 0
-109 -110 0
102 110 111 0
-102 -111 0
-110 -111 0
107 -109 112 0
-107 -112 0
109 -112 0
111 112 113 0
-111 -113 0
-112 -113 0
17 -2 114 0
-17 -114 0
2 -114 0
114 -1 115 0
-114 -115 0
1 -115 0
115 22 116 0
-115 -116 0
-22 -116 0
-3 17 117 0
3 -117 0
-17 -117 0
-116 117 118 0
116 -118 0
-117 -118 0
25 60 119 0
-25 -119 0
-60 -119 0
119 61 120 0
-119 -120 0
-61 -120 0
-118 120 121 0
118 -121 0
-120 -121 0
113 121 122 0
-113 -122 0
-121 -122 0
118 -120 123 0
-118 -123 0
120 -123 0
122 123 124 0
-122 -124 0
-123 -124 0
-125 19 126 0
125 -126 0
-19 -126 0
125 -19 127 0
-125 -127 0
19 -127 0
126 127 128 0
-126 -128 0
-127 -128 0
124 128 129 0
-124 -129 0
-128 -129 0
-62 129 130 0
62 -130 0
-129 -130 0
-20 -61 131 0
20 -131 0
61 -131 0
-129 -131 132 0
129 -132 0
131 -132 0
130 132 133 0
-130 -133 0
-132 -133 0
-124 -128 134 0
124 -134 0
128 -134 0
-134 131 135 0
134 -135 0
-131 -135 0
-133 135 136 0
133 -136 0
-135 -136 0
-136 0
